9
0, 341, 694, 187, 318, 538, 529, 551, 491
341, 0, 353, 238, 98, 462, 401, 228, 192
694, 353, 0, 562, 407, 638, 554, 211, 250
187, 238, 562, 0, 272, 601, 565, 467, 331
318, 98, 407, 272, 0, 368, 312, 236, 286
538, 462, 638, 601, 368, 0, 85, 429, 630
529, 401, 554, 565, 312, 85, 0, 346, 558
551, 228, 211, 467, 236, 429, 346, 0, 266
491, 192, 250, 331, 286, 630, 558, 266, 0
